analyze/results_flowersnark/final_miplib_symretope_if_extended_generating_set_cpx_v802__settings_final_nopeek_norelabel_extend_norestarts__4__neos-1109824.mps.gz.sol
solution status: optimal solution found
objective value:                                  378
C0010                                               1 	(obj:22)
C0051                                               1 	(obj:5)
C0063                                               1 	(obj:25)
C0077                                               1 	(obj:28)
C0123                                               1 	(obj:22)
C0138                                               1 	(obj:9)
C0160                                               1 	(obj:0)
C0186                                               1 	(obj:30)
C0193                                               1 	(obj:3)
C0251                                               1 	(obj:43)
C0294                                               1 	(obj:3)
C0391                                               1 	(obj:29)
C0476                                               1 	(obj:19)
C0605                                               1 	(obj:6)
C0690                                               1 	(obj:34)
C0772                                               1 	(obj:17)
C0780                                               1 	(obj:23)
C1006                                               1 	(obj:10)
C1104                                               1 	(obj:10)
C1154                                               1 	(obj:5)
C1423                                               1 	(obj:13)
C1482                                               1 	(obj:5)
C1502                                               1 	(obj:17)
