analyze/results_flowersnark/final_miplib_symretope_if_extended_generating_set_cpx_v802__settings_final_nopeek_norelabel_extend_norestarts__4__neos-1109824.mps.gz.out
FILENAME:   /home/mcs001/s132664/testsets/IP/miplib2010/neos-1109824.mps.gz
SETTINGS:   settings_final_nopeek_norelabel_extend_norestarts
TIMELIMIT:  7200
OUTPUTNAME: final_miplib_symretope_if_extended_generating_set_cpx_v802__settings_final_nopeek_norelabel_extend_norestarts__4__
BINNAME:    bin/sbcs.linux.x86_64.gnu.opt.cpx
BASENAME:   neos-1109824.mps.gz
SEED:       4
@01 /home/mcs001/s132664/testsets/IP/miplib2010/neos-1109824.mps.gz ===========
@02 neos-1109824.mps.gz
@03 1686665083
SCIP version 8.0.2 [precision: 8 byte] [memory: block] [mode: optimized] [LP solver: CPLEX 20.1.0.0] [GitHash: 5f0473c]
Copyright (C) 2002-2022 Konrad-Zuse-Zentrum fuer Informationstechnik Berlin (ZIB)

Symretope propagation methods - (c) Jasper van Doornmalen, Christopher Hojny.
[GitHash: 2fd0484]

reading parameter file <../settings/settings_final_nopeek_norelabel_extend_norestarts.set> ...

Changed settings:
limits/time = 7200
limits/restarts = 0
misc/usesymmetry = 1
randomization/randomseedshift = 4
constraints/orbisack/sepafreq = -1
constraints/symresack/sepafreq = -1
propagating/symmetry/addsymresacks = TRUE
propagating/symmetry/detectsubgroups = FALSE
propagating/symmetry/relabelsymretopes = 0
propagating/symmetry/extendgenerators = TRUE
propagating/symmetry/ofsymcomptiming = 0
constraints/symretope/sepafreq = -1
constraints/symretope/peek = FALSE


solving problem ...

original problem has 1520 variables (1520 bin, 0 int, 0 impl, 0 cont) and 28979 constraints
presolving:
(round 1, exhaustive) 0 del vars, 19000 del conss, 0 add conss, 0 chg bounds, 0 chg sides, 0 chg coeffs, 0 upgd conss, 0 impls, 783 clqs
(round 2, exhaustive) 0 del vars, 19000 del conss, 0 add conss, 0 chg bounds, 0 chg sides, 0 chg coeffs, 9903 upgd conss, 0 impls, 783 clqs
   (1.2s) probing: 1000/1520 (65.8%) - 0 fixings, 0 aggregations, 51813 implications, 0 bound changes
   (1.2s) probing: 1001/1520 (65.9%) - 0 fixings, 0 aggregations, 51869 implications, 0 bound changes
   (1.2s) probing aborted: 1000/1000 successive useless probings
   (1.2s) symmetry computation started: requiring (bin +, int +, cont +), (fixed: bin -, int -, cont -)
   (1.3s) symmetry computation finished: 4 generators found (max: 1500, log10 of symmetry group size: 1.7)
(round 3, exhaustive) 0 del vars, 19000 del conss, 9 add conss, 0 chg bounds, 0 chg sides, 0 chg coeffs, 9903 upgd conss, 0 impls, 52652 clqs
presolving (4 rounds: 4 fast, 4 medium, 4 exhaustive):
 0 deleted vars, 19000 deleted constraints, 9 added constraints, 0 tightened bounds, 0 added holes, 0 changed sides, 0 changed coefficients
 0 implications, 52652 cliques
presolved problem has 1520 variables (1520 bin, 0 int, 0 impl, 0 cont) and 9988 constraints
    783 constraints of type <setppc>
     76 constraints of type <linear>
      7 constraints of type <orbisack>
      2 constraints of type <symretope>
   9120 constraints of type <logicor>
transformed objective value is always integral (scale: 1)
Presolving Time: 1.30

 time | node  | left  |LP iter|LP it/n|mem/heur|mdpt |vars |cons |rows |cuts |sepa|confs|strbr|  dualbound   | primalbound  |  gap   | compl. 
  1.5s|     1 |     0 |   137 |     - |    75M |   0 |1520 |  10k|9990 |   0 |  0 |  15 |   0 | 2.780000e+02 |      --      |    Inf | unknown
  1.9s|     1 |     0 |   796 |     - |    76M |   0 |1520 |  10k|9996 |   6 |  1 |  15 |   0 | 2.787500e+02 |      --      |    Inf | unknown
  2.0s|     1 |     0 |   801 |     - |    78M |   0 |1520 |  10k|9998 |   8 |  2 |  15 |   0 | 2.802500e+02 |      --      |    Inf | unknown
  2.2s|     1 |     0 |   836 |     - |    79M |   0 |1520 |  10k|  10k|  37 |  3 |  15 |   0 | 2.918333e+02 |      --      |    Inf | unknown
  2.4s|     1 |     0 |   897 |     - |    81M |   0 |1520 |  10k|  10k|  61 |  4 |  15 |   0 | 3.285000e+02 |      --      |    Inf | unknown
  2.6s|     1 |     0 |   912 |     - |    82M |   0 |1520 |  10k|  10k|  77 |  5 |  15 |   0 | 3.440000e+02 |      --      |    Inf | unknown
  2.7s|     1 |     0 |   936 |     - |    84M |   0 |1520 |  10k|  10k|  82 |  6 |  15 |   0 | 3.460000e+02 |      --      |    Inf | unknown
  3.0s|     1 |     0 |   953 |     - |    85M |   0 |1520 |  10k|  10k|  89 |  7 |  15 |   0 | 3.460000e+02 |      --      |    Inf | unknown
  3.1s|     1 |     0 |   983 |     - |    86M |   0 |1520 |  10k|  10k| 107 |  8 |  15 |   0 | 3.460000e+02 |      --      |    Inf | unknown
  3.3s|     1 |     0 |  1001 |     - |    88M |   0 |1520 |  10k|  10k| 116 |  9 |  15 |   0 | 3.460000e+02 |      --      |    Inf | unknown
  3.4s|     1 |     0 |  1024 |     - |    89M |   0 |1520 |  10k|  10k| 121 | 10 |  15 |   0 | 3.460000e+02 |      --      |    Inf | unknown
  3.5s|     1 |     0 |  1042 |     - |    90M |   0 |1520 |  10k|  10k| 131 | 11 |  15 |   0 | 3.460000e+02 |      --      |    Inf | unknown
  3.5s|     1 |     0 |  1046 |     - |    92M |   0 |1520 |  10k|  10k| 135 | 12 |  15 |   0 | 3.460000e+02 |      --      |    Inf | unknown
  3.5s|     1 |     0 |  1062 |     - |    93M |   0 |1520 |  10k|  10k| 139 | 13 |  15 |   0 | 3.460000e+02 |      --      |    Inf | unknown
  3.6s|     1 |     0 |  1083 |     - |    94M |   0 |1520 |  10k|  10k| 147 | 14 |  15 |   0 | 3.460000e+02 |      --      |    Inf | unknown
 time | node  | left  |LP iter|LP it/n|mem/heur|mdpt |vars |cons |rows |cuts |sepa|confs|strbr|  dualbound   | primalbound  |  gap   | compl. 
  3.7s|     1 |     0 |  1112 |     - |    95M |   0 |1520 |  10k|  10k| 154 | 15 |  22 |   0 | 3.460000e+02 |      --      |    Inf | unknown
  3.7s|     1 |     0 |  1129 |     - |    96M |   0 |1520 |  10k|  10k| 156 | 16 |  22 |   0 | 3.460000e+02 |      --      |    Inf | unknown
  5.2s|     1 |     2 |  2810 |     - |    98M |   0 |1520 |  10k|  10k| 156 | 16 |  31 |  25 | 3.460000e+02 |      --      |    Inf | unknown
* 6.2s|     8 |     3 |  2922 | 256.4 |strongbr|   5 |1520 |  10k|  10k| 156 |  1 |  55 | 116 | 3.460000e+02 | 3.940000e+02 |  13.87%|  15.62%
* 6.3s|     8 |     3 |  2928 | 257.3 |strongbr|   5 |1520 |  10k|  10k| 156 |  2 |  68 | 120 | 3.460000e+02 | 3.930000e+02 |  13.58%|  15.62%
* 6.3s|     8 |     3 |  2955 | 261.1 |strongbr|   5 |1520 |  10k|  10k| 156 |  3 |  76 | 123 | 3.460000e+02 | 3.880000e+02 |  12.14%|  15.62%
*10.2s|    25 |     2 |  3573 | 101.9 |strongbr|   7 |1520 |8709 |  10k| 156 |  1 | 478 | 527 | 3.460000e+02 | 3.780000e+02 |   9.25%|  24.34%
 22.2s|   100 |     7 |  6506 |  54.3 |   133M |  14 |1520 |7646 |  10k| 325 |  5 |1480 |1349 | 3.541034e+02 | 3.780000e+02 |   6.75%|  58.18%
 31.7s|   200 |    12 |  9389 |  41.5 |   138M |  24 |1520 |8316 |  10k| 357 |  1 |2599 |1943 | 3.640000e+02 | 3.780000e+02 |   3.85%|  82.33%
 36.8s|   300 |    16 | 11769 |  35.6 |   139M |  28 |1520 |8680 |  10k| 398 |  5 |3537 |2280 | 3.640000e+02 | 3.780000e+02 |   3.85%|  82.77%
 40.9s|   400 |    19 | 13769 |  31.7 |   141M |  28 |1520 |8451 |  10k| 471 |  1 |3937 |2493 | 3.645000e+02 | 3.780000e+02 |   3.70%|  83.38%
 44.4s|   500 |     9 | 15341 |  28.5 |   145M |  32 |1520 |8657 |  10k| 508 |  4 |4607 |2667 | 3.665000e+02 | 3.780000e+02 |   3.14%|  85.52%
 47.0s|   600 |     5 | 16698 |  26.0 |   145M |  33 |1520 |8690 |  10k| 533 |  1 |4988 |2787 | 3.680000e+02 | 3.780000e+02 |   2.72%|  87.39%
 48.6s|   700 |     6 | 17739 |  23.8 |   146M |  38 |1520 |8787 |   0 | 540 |  0 |5149 |2868 | 3.680000e+02 | 3.780000e+02 |   2.72%|  87.39%

SCIP Status        : problem is solved [optimal solution found]
Solving Time (sec) : 51.19
Solving Nodes      : 796
Primal Bound       : +3.78000000000000e+02 (4 solutions)
Dual Bound         : +3.78000000000000e+02
Gap                : 0.00 %
SCIP Status        : problem is solved [optimal solution found]
Total Time         :      51.31
  solving          :      51.19
  presolving       :       1.30 (included in solving)
  reading          :       0.12
  copying          :       0.27 (11 #copies) (minimal 0.02, maximal 0.03, average 0.02)
Original Problem   :
  Problem name     : neos-1109824
  Variables        : 1520 (1520 binary, 0 integer, 0 implicit integer, 0 continuous)
  Constraints      : 28979 initial, 28979 maximal
  Objective        : minimize, 1512 non-zeros (abs.min = 3, abs.max = 83)
Presolved Problem  :
  Problem name     : t_neos-1109824
  Variables        : 1520 (1520 binary, 0 integer, 0 implicit integer, 0 continuous)
  Constraints      : 9988 initial, 10142 maximal
  Objective        : minimize, 1512 non-zeros (abs.min = 3, abs.max = 83)
  Nonzeros         : 40868 constraint, 57938 clique table
Presolvers         :   ExecTime  SetupTime  Calls  FixedVars   AggrVars   ChgTypes  ChgBounds   AddHoles    DelCons    AddCons   ChgSides   ChgCoefs
  boundshift       :       0.00       0.00      0          0          0          0          0          0          0          0          0          0
  convertinttobin  :       0.00       0.00      0          0          0          0          0          0          0          0          0          0
  domcol           :       0.01       0.00      2          0          0          0          0          0          0          0          0          0
  dualagg          :       0.00       0.00      0          0          0          0          0          0          0          0          0          0
  dualcomp         :       0.00       0.00      0          0          0          0          0          0          0          0          0          0
  dualinfer        :       0.00       0.00      0          0          0          0          0          0          0          0          0          0
  dualsparsify     :       0.01       0.00      1          0          0          0          0          0          0          0          0          0
  gateextraction   :       0.01       0.00      2          0          0          0          0          0          0          0          0          0
  implics          :       0.00       0.00      4          0          0          0          0          0          0          0          0          0
  inttobinary      :       0.00       0.00      0          0          0          0          0          0          0          0          0          0
  qpkktref         :       0.00       0.00      0          0          0          0          0          0          0          0          0          0
  redvub           :       0.00       0.00      0          0          0          0          0          0          0          0          0          0
  sparsify         :       0.04       0.00      1          0          0          0          0          0          0          0          0          0
  stuffing         :       0.00       0.00      0          0          0          0          0          0          0          0          0          0
  trivial          :       0.00       0.00      4          0          0          0          0          0          0          0          0          0
  tworowbnd        :       0.00       0.00      0          0          0          0          0          0          0          0          0          0
  dualfix          :       0.00       0.00      4          0          0          0          0          0          0          0          0          0
  genvbounds       :       0.00       0.00      0          0          0          0          0          0          0          0          0          0
  probing          :       1.02       0.00      1          0          0          0          0          0          0          0          0          0
  pseudoobj        :       0.00       0.00      0          0          0          0          0          0          0          0          0          0
  symmetry         :       0.05       0.00      1          0          0          0          0          0          0          9          0          0
  vbounds          :       0.01       0.00      2          0          0          0          0          0          0          0          0          0
  knapsack         :       0.00       0.00      0          0          0          0          0          0          0          0          0          0
  setppc           :       0.00       0.00      6          0          0          0          0          0          0          0          0          0
  linear           :       0.07       0.01      8          0          0          0          0          0      19000          0          0          0
  orbisack         :       0.00       0.00      1          0          0          0          0          0          0          0          0          0
  symretope        :       0.00       0.00      1          0          0          0          0          0          0          0          0          0
  logicor          :       0.04       0.00      6          0          0          0          0          0          0          0          0          0
  benders          :       0.00       0.00      0          0          0          0          0          0          0          0          0          0
  components       :       0.01       0.00      1          0          0          0          0          0          0          0          0          0
  root node        :          -          -      -        421          -          -        421          -          -          -          -          -
Constraints        :     Number  MaxNumber  #Separate #Propagate    #EnfoLP    #EnfoRelax  #EnfoPS    #Check   #ResProp    Cutoffs    DomReds       Cuts    Applied      Conss   Children
  benderslp        :          0          0          0          0       1148          0          0        106          0          0          0          0          0          0          0
  integral         :          0          0          0          0       1148          0          0        106          0          0       2444          0          0       4366        798
  knapsack         :          0+        12          0      13460          0          0          0          0       4745         19       2076          0          0          0          0
  setppc           :        783+       884         16      20089          0          0          0        101      80891         99      16094          0          0          0          0
  linear           :         76+        80         16      19990          0          0          0          5      23038        214      12588          0          0          0          0
  orbisack         :          7          7          0        448          0          0          0          5       1154         18        313          0          0          0          0
  symretope        :          2          2          0       1263          0          0          0          5        329         11        165          0          0          0          0
  logicor          :       9120+      9252         16      11026          0          0          0          5       5398        303       1771          3          2          0          0
  benders          :          0          0          0          0          0          0          0          6          0          0          0          0          0          0          0
  countsols        :          0          0          0          0          0          0          0          6          0          0          0          0          0          0          0
  components       :          0          0          0          0          0          0          0          0          0          0          0          0          0          0          0
Constraint Timings :  TotalTime  SetupTime   Separate  Propagate     EnfoLP     EnfoPS     EnfoRelax   Check    ResProp    SB-Prop
  benderslp        :       0.00       0.00       0.00       0.00       0.00       0.00       0.00       0.00       0.00       0.00
  integral         :      27.25       0.00       0.00       0.00      27.25       0.00       0.00       0.00       0.00       0.00
  knapsack         :       0.07       0.00       0.00       0.02       0.00       0.00       0.00       0.00       0.02       0.04
  setppc           :       0.46       0.00       0.00       0.12       0.00       0.00       0.00       0.00       0.03       0.31
  linear           :       0.63       0.01       0.02       0.26       0.00       0.00       0.00       0.00       0.07       0.26
  orbisack         :       0.01       0.00       0.00       0.00       0.00       0.00       0.00       0.00       0.00       0.01
  symretope        :       0.02       0.00       0.00       0.01       0.00       0.00       0.00       0.00       0.00       0.01
  logicor          :       1.09       0.00       0.04       0.60       0.00       0.00       0.00       0.00       0.03       0.41
  benders          :       0.00       0.00       0.00       0.00       0.00       0.00       0.00       0.00       0.00       0.00
  countsols        :       0.00       0.00       0.00       0.00       0.00       0.00       0.00       0.00       0.00       0.00
  components       :       0.00       0.00       0.00       0.00       0.00       0.00       0.00       0.00       0.00       0.00
Propagators        : #Propagate   #ResProp    Cutoffs    DomReds
  dualfix          :          1          0          0          0
  genvbounds       :          0          0          0          0
  nlobbt           :          0          0          0          0
  obbt             :          0          0          0          0
  probing          :          0          0          0          0
  pseudoobj        :       5885          0          0          0
  redcost          :       3755          0          0      44339
  rootredcost      :          5          0          0        416
  symmetry         :          0          0          0          0
  vbounds          :       6131          0          0          0
Propagator Timings :  TotalTime  SetupTime   Presolve  Propagate    ResProp    SB-Prop
  dualfix          :       0.00       0.00       0.00       0.00       0.00       0.00
  genvbounds       :       0.01       0.00       0.00       0.00       0.00       0.00
  nlobbt           :       0.00       0.00       0.00       0.00       0.00       0.00
  obbt             :       0.00       0.00       0.00       0.00       0.00       0.00
  probing          :       1.02       0.00       1.02       0.00       0.00       0.00
  pseudoobj        :       0.03       0.00       0.00       0.03       0.00       0.00
  redcost          :       0.37       0.00       0.00       0.37       0.00       0.00
  rootredcost      :       0.01       0.00       0.00       0.01       0.00       0.00
  symmetry         :       0.05       0.00       0.05       0.00       0.00       0.00
  vbounds          :       0.03       0.00       0.01       0.01       0.00       0.00
Orbital fixing     :
  vars fixed to 0  :          0
  vars fixed to 1  :          0
Conflict Analysis  :       Time      Calls    Success    DomReds  Conflicts   Literals    Reconvs ReconvLits   Dualrays   Nonzeros   LP Iters   (pool size: [10000,10000])
  propagation      :       0.09        585        569          -       1965      122.1         96       23.2          -          -          -
  infeasible LP    :       0.03         30         30          -         90       80.5         10       28.4         29       93.7          0
  bound exceed. LP :       6.02       1143       1086          -       4957       98.2         57       54.4          0        0.0      12514
  strong branching :       0.00          0          0          -          0        0.0          0        0.0          -          -          0
  pseudo solution  :       0.00          0          0          -          0        0.0          0        0.0          -          -          -
  applied globally :       0.97          -          -          0       5475       57.4          -          -         29          -          -
  applied locally  :          -          -          -          0         34      273.2          -          -          0          -          -
Separators         :   ExecTime  SetupTime      Calls  RootCalls    Cutoffs    DomReds  FoundCuts ViaPoolAdd  DirectAdd    Applied ViaPoolApp  DirectApp      Conss
  cut pool         :       0.21          -        284         31          -          -       2078       1290          -          -          -          -          -    (maximal pool size:       1602)
  aggregation      :       0.18       0.00         96         16          0          0          0          0          0          0          0          0          0
  > cmir           :          -          -          -          -          -          -          -          0          0          0          0          0          -
  > flowcover      :          -          -          -          -          -          -          -          0          0          0          0          0          -
  > knapsackcover  :          -          -          -          -          -          -          -          0          0          0          0          0          -
  cgmip            :       0.00       0.00          0          0          0          0          0          0          0          0          0          0          0
  clique           :       0.05       0.00         16         16          0          0         57        104          0         78         78          0          0
  closecuts        :       0.00       0.00          0          0          0          0          0          0          0          0          0          0          0
  convexproj       :       0.00       0.00          0          0          0          0          0          0          0          0          0          0          0
  disjunctive      :       0.00       0.00          0          0          0          0          0          0          0          0          0          0          0
  eccuts           :       0.00       0.00          0          0          0          0          0          0          0          0          0          0          0
  gauge            :       0.00       0.00          0          0          0          0          0          0          0          0          0          0          0
  gomory           :       5.13       0.00         70         10          0          0       1838        733         50        208        207          1          0
  > gomorymi       :          -          -          -          -          -          -          -        133         25         17         16          1          -
  > strongcg       :          -          -          -          -          -          -          -        600         25        191        191          0          -
  impliedbounds    :       0.20       0.00         96         16          0          0          1          1          0          1          1          0          0
  interminor       :       0.00       0.00          0          0          0          0          0          0          0          0          0          0          0
  intobj           :       0.00       0.00          0          0          0          0          0          0          0          0          0          0          0
  mcf              :       0.00       0.00          1          1          0          0          0          0          0          0          0          0          0
  minor            :       0.00       0.00          0          0          0          0          0          0          0          0          0          0          0
  mixing           :       0.00       0.00          0          0          0          0          0          0          0          0          0          0          0
  oddcycle         :       0.00       0.00          0          0          0          0          0          0          0          0          0          0          0
  rapidlearning    :       0.03       0.00          0          0          0          0          0          0          0          0          0          0          0
  rlt              :       0.00       0.00         10         10          0          0          0          0          0          0          0          0          0
  zerohalf         :       0.14       0.00         76         16          0          0        246        452         14        272        263          9          0
Cutselectors       :   ExecTime  SetupTime      Calls  RootCalls   Selected     Forced   Filtered  RootSelec   RootForc   RootFilt 
  hybrid           :       0.00       0.00        117         16        561          0        796        156          0        120
Pricers            :   ExecTime  SetupTime      Calls       Vars
  problem variables:       0.00          -          0          0
Branching Rules    :   ExecTime  SetupTime   BranchLP  BranchExt   BranchPS    Cutoffs    DomReds       Cuts      Conss   Children
  allfullstrong    :       0.00       0.00          0          0          0          0          0          0          0          0
  cloud            :       0.00       0.00          0          0          0          0          0          0          0          0
  distribution     :       0.00       0.00          0          0          0          0          0          0          0          0
  fullstrong       :       0.00       0.00          0          0          0          0          0          0          0          0
  inference        :       0.00       0.00          0          0          0          0          0          0          0          0
  leastinf         :       0.00       0.00          0          0          0          0          0          0          0          0
  lookahead        :       0.00       0.00          0          0          0          0          0          0          0          0
  mostinf          :       0.00       0.00          0          0          0          0          0          0          0          0
  multaggr         :       0.00       0.00          0          0          0          0          0          0          0          0
  nodereopt        :       0.00       0.00          0          0          0          0          0          0          0          0
  pscost           :       0.00       0.00          0          0          0          0          0          0          0          0
  random           :       0.00       0.00          0          0          0          0          0          0          0          0
  relpscost        :      27.25       0.00       1148          0          0          0       2444          0       4929        798
  vanillafullstrong:       0.00       0.00          0          0          0          0          0          0          0          0
Primal Heuristics  :   ExecTime  SetupTime      Calls      Found       Best
  LP solutions     :       0.00          -          -          0          0
  relax solutions  :       0.00          -          -          0          0
  pseudo solutions :       0.00          -          -          0          0
  strong branching :       0.03          -          -          4          4
  actconsdiving    :       0.00       0.00          0          0          0
  adaptivediving   :       0.00       0.00          0          0          0
  alns             :       0.40       0.00          4          0          0
  bound            :       0.00       0.00          0          0          0
  clique           :       0.04       0.00          1          0          0
  coefdiving       :       0.00       0.00          0          0          0
  completesol      :       0.00       0.00          0          0          0
  conflictdiving   :       0.05       0.00          1          0          0
  crossover        :       0.05       0.00          1          0          0
  dins             :       0.00       0.00          0          0          0
  distributiondivin:       0.03       0.00          0          0          0
  dps              :       0.00       0.00          0          0          0
  dualval          :       0.00       0.00          0          0          0
  farkasdiving     :       1.08       0.00          1          0          0
  feaspump         :       0.19       0.00          1          0          0
  fixandinfer      :       0.00       0.00          0          0          0
  fracdiving       :       0.00       0.00          0          0          0
  gins             :       0.00       0.00          0          0          0
  guideddiving     :       0.00       0.00          0          0          0
  indicator        :       0.00       0.00          0          0          0
  intdiving        :       0.00       0.00          0          0          0
  intshifting      :       0.00       0.00          0          0          0
  linesearchdiving :       0.00       0.00          0          0          0
  localbranching   :       0.00       0.00          0          0          0
  locks            :       0.01       0.00          1          0          0
  lpface           :       1.18       0.00          2          0          0
  mpec             :       0.00       0.00          0          0          0
  multistart       :       0.00       0.00          0          0          0
  mutation         :       0.00       0.00          0          0          0
  nlpdiving        :       0.00       0.00          0          0          0
  objpscostdiving  :       0.00       0.00          0          0          0
  octane           :       0.00       0.00          0          0          0
  ofins            :       0.00       0.00          0          0          0
  oneopt           :       0.00       0.00          3          0          0
  padm             :       0.00       0.00          0          0          0
  proximity        :       0.00       0.00          0          0          0
  pscostdiving     :       0.00       0.00          0          0          0
  randrounding     :       0.09       0.00        105          0          0
  rens             :       0.05       0.00          1          0          0
  reoptsols        :       0.00       0.00          0          0          0
  repair           :       0.00       0.00          0          0          0
  rins             :       0.27       0.00          5          0          0
  rootsoldiving    :       0.00       0.00          0          0          0
  rounding         :       0.26       0.00        480          0          0
  shiftandpropagate:       0.01       0.00          1          0          0
  shifting         :       0.13       0.00        137          0          0
  simplerounding   :       0.00       0.00          0          0          0
  subnlp           :       0.00       0.00          0          0          0
  trivial          :       0.00       0.00          2          0          0
  trivialnegation  :       0.00       0.00          0          0          0
  trustregion      :       0.00       0.00          0          0          0
  trysol           :       0.00       0.00          0          0          0
  twoopt           :       0.00       0.00          0          0          0
  undercover       :       0.00       0.00          0          0          0
  vbounds          :       0.04       0.00          1          0          0
  veclendiving     :       0.00       0.00          0          0          0
  zeroobj          :       0.00       0.00          0          0          0
  zirounding       :       0.02       0.00        399          0          0
  other solutions  :          -          -          -          0          -
LP                 :       Time      Calls Iterations  Iter/call   Iter/sec  Time-0-It Calls-0-It    ItLimit
  primal LP        :       0.47         53          0       0.00       0.00       0.47         53
  dual LP          :       7.08       2770      16490       9.95    2327.97       0.87       1113
  lex dual LP      :       0.00          0          0       0.00          -
  barrier LP       :       0.00          0          0       0.00          -       0.00          0
  resolve instable :       0.00          0          0       0.00          -
  diving/probing LP:       2.50        322       2333       7.25     931.50
  strong branching :      13.57       2985      44675      14.97    3291.11          -          -        393
    (at root node) :          -         25        812      32.48          -
  conflict analysis:       3.62       1346      12514       9.30    3458.90
B&B Tree           :
  number of runs   :          1
  nodes            :        796 (399 internal, 397 leaves)
  feasible leaves  :          0
  infeas. leaves   :        122
  objective leaves :        275
  nodes (total)    :        796 (399 internal, 397 leaves)
  nodes left       :          0
  max depth        :         43
  max depth (total):         43
  backtracks       :        101 (12.7%)
  early backtracks :          0 (0.0%)
  nodes exc. ref.  :          0 (0.0%)
  delayed cutoffs  :          3
  repropagations   :        323 (738 domain reductions, 3 cutoffs)
  avg switch length:       3.18
  switching time   :       0.92
Root Node          :
  First LP value   : +2.78000000000000e+02
  First LP Iters   :        135 (4693.20 Iter/sec)
  First LP Time    :       0.03
  Final Dual Bound : +3.46000000000000e+02
  Final Root Iters :       1127
  Root LP Estimate : +3.68416760210904e+02
Solution           :
  Solutions found  :          4 (4 improvements)
  First Solution   : +3.94000000000000e+02   (in run 1, after 8 nodes, 6.22 seconds, depth 7, found by <relaxation>)
  Gap First Sol.   :      13.87 %
  Gap Last Sol.    :       9.25 %
  Primal Bound     : +3.78000000000000e+02   (in run 1, after 25 nodes, 10.21 seconds, depth 6, found by <relaxation>)
  Dual Bound       : +3.78000000000000e+02
  Gap              :       0.00 %
Integrals          :      Total       Avg%
  primal-dual      :     859.20      16.78
  primal-ref       :          -          - (not evaluated)
  dual-ref         :          -          - (not evaluated)
written solution information to file <results/final_miplib_symretope_if_extended_generating_set_cpx_v802__settings_final_nopeek_norelabel_extend_norestarts__4__neos-1109824.mps.gz.sol>
@04 1686665135
